(define matrix::(-> int int int))

(assert (= (matrix 0 1) 1))
(assert (= (matrix 0 2) 2))
(assert (= (matrix 0 3) 3))
(assert (= (matrix 0 4) 4))
(assert (= (matrix 0 5) 5))
(assert (= (matrix 0 6) 6))
(assert (= (matrix 0 7) 7))
(assert (= (matrix 0 8) 8))

(assert (or
(and
(= (matrix 1 1) (matrix 0 1))
(= (matrix 1 2) (+ (matrix 0 1) (matrix 0 3)))
(= (matrix 1 3) (matrix 0 3))
(= (matrix 1 4) (matrix 0 4))
(= (matrix 1 5) (matrix 0 5))
(= (matrix 1 6) (matrix 0 6))
(= (matrix 1 7) (matrix 0 7))
(= (matrix 1 8) (matrix 0 8))
)
(and
(= (matrix 1 1) (matrix 0 1))
(= (matrix 1 2) (matrix 0 2))
(= (matrix 1 3) (+ (matrix 0 2) (matrix 0 4)))
(= (matrix 1 4) (matrix 0 4))
(= (matrix 1 5) (matrix 0 5))
(= (matrix 1 6) (matrix 0 6))
(= (matrix 1 7) (matrix 0 7))
(= (matrix 1 8) (matrix 0 8))
)
(and
(= (matrix 1 1) (matrix 0 1))
(= (matrix 1 2) (matrix 0 2))
(= (matrix 1 3) (matrix 0 3))
(= (matrix 1 4) (+ (matrix 0 3) (matrix 0 5)))
(= (matrix 1 5) (matrix 0 5))
(= (matrix 1 6) (matrix 0 6))
(= (matrix 1 7) (matrix 0 7))
(= (matrix 1 8) (matrix 0 8))
)
(and
(= (matrix 1 1) (matrix 0 1))
(= (matrix 1 2) (matrix 0 2))
(= (matrix 1 3) (matrix 0 3))
(= (matrix 1 4) (matrix 0 4))
(= (matrix 1 5) (+ (matrix 0 4) (matrix 0 6)))
(= (matrix 1 6) (matrix 0 6))
(= (matrix 1 7) (matrix 0 7))
(= (matrix 1 8) (matrix 0 8))
)
(and
(= (matrix 1 1) (matrix 0 1))
(= (matrix 1 2) (matrix 0 2))
(= (matrix 1 3) (matrix 0 3))
(= (matrix 1 4) (matrix 0 4))
(= (matrix 1 5) (matrix 0 5))
(= (matrix 1 6) (+ (matrix 0 5) (matrix 0 7)))
(= (matrix 1 7) (matrix 0 7))
(= (matrix 1 8) (matrix 0 8))
)
(and
(= (matrix 1 1) (matrix 0 1))
(= (matrix 1 2) (matrix 0 2))
(= (matrix 1 3) (matrix 0 3))
(= (matrix 1 4) (matrix 0 4))
(= (matrix 1 5) (matrix 0 5))
(= (matrix 1 6) (matrix 0 6))
(= (matrix 1 7) (+ (matrix 0 6) (matrix 0 8)))
(= (matrix 1 8) (matrix 0 8))
)
))
(assert (or
(and
(= (matrix 2 1) (matrix 1 1))
(= (matrix 2 2) (+ (matrix 1 1) (matrix 1 3)))
(= (matrix 2 3) (matrix 1 3))
(= (matrix 2 4) (matrix 1 4))
(= (matrix 2 5) (matrix 1 5))
(= (matrix 2 6) (matrix 1 6))
(= (matrix 2 7) (matrix 1 7))
(= (matrix 2 8) (matrix 1 8))
)
(and
(= (matrix 2 1) (matrix 1 1))
(= (matrix 2 2) (matrix 1 2))
(= (matrix 2 3) (+ (matrix 1 2) (matrix 1 4)))
(= (matrix 2 4) (matrix 1 4))
(= (matrix 2 5) (matrix 1 5))
(= (matrix 2 6) (matrix 1 6))
(= (matrix 2 7) (matrix 1 7))
(= (matrix 2 8) (matrix 1 8))
)
(and
(= (matrix 2 1) (matrix 1 1))
(= (matrix 2 2) (matrix 1 2))
(= (matrix 2 3) (matrix 1 3))
(= (matrix 2 4) (+ (matrix 1 3) (matrix 1 5)))
(= (matrix 2 5) (matrix 1 5))
(= (matrix 2 6) (matrix 1 6))
(= (matrix 2 7) (matrix 1 7))
(= (matrix 2 8) (matrix 1 8))
)
(and
(= (matrix 2 1) (matrix 1 1))
(= (matrix 2 2) (matrix 1 2))
(= (matrix 2 3) (matrix 1 3))
(= (matrix 2 4) (matrix 1 4))
(= (matrix 2 5) (+ (matrix 1 4) (matrix 1 6)))
(= (matrix 2 6) (matrix 1 6))
(= (matrix 2 7) (matrix 1 7))
(= (matrix 2 8) (matrix 1 8))
)
(and
(= (matrix 2 1) (matrix 1 1))
(= (matrix 2 2) (matrix 1 2))
(= (matrix 2 3) (matrix 1 3))
(= (matrix 2 4) (matrix 1 4))
(= (matrix 2 5) (matrix 1 5))
(= (matrix 2 6) (+ (matrix 1 5) (matrix 1 7)))
(= (matrix 2 7) (matrix 1 7))
(= (matrix 2 8) (matrix 1 8))
)
(and
(= (matrix 2 1) (matrix 1 1))
(= (matrix 2 2) (matrix 1 2))
(= (matrix 2 3) (matrix 1 3))
(= (matrix 2 4) (matrix 1 4))
(= (matrix 2 5) (matrix 1 5))
(= (matrix 2 6) (matrix 1 6))
(= (matrix 2 7) (+ (matrix 1 6) (matrix 1 8)))
(= (matrix 2 8) (matrix 1 8))
)
))
(assert (or
(and
(= (matrix 3 1) (matrix 2 1))
(= (matrix 3 2) (+ (matrix 2 1) (matrix 2 3)))
(= (matrix 3 3) (matrix 2 3))
(= (matrix 3 4) (matrix 2 4))
(= (matrix 3 5) (matrix 2 5))
(= (matrix 3 6) (matrix 2 6))
(= (matrix 3 7) (matrix 2 7))
(= (matrix 3 8) (matrix 2 8))
)
(and
(= (matrix 3 1) (matrix 2 1))
(= (matrix 3 2) (matrix 2 2))
(= (matrix 3 3) (+ (matrix 2 2) (matrix 2 4)))
(= (matrix 3 4) (matrix 2 4))
(= (matrix 3 5) (matrix 2 5))
(= (matrix 3 6) (matrix 2 6))
(= (matrix 3 7) (matrix 2 7))
(= (matrix 3 8) (matrix 2 8))
)
(and
(= (matrix 3 1) (matrix 2 1))
(= (matrix 3 2) (matrix 2 2))
(= (matrix 3 3) (matrix 2 3))
(= (matrix 3 4) (+ (matrix 2 3) (matrix 2 5)))
(= (matrix 3 5) (matrix 2 5))
(= (matrix 3 6) (matrix 2 6))
(= (matrix 3 7) (matrix 2 7))
(= (matrix 3 8) (matrix 2 8))
)
(and
(= (matrix 3 1) (matrix 2 1))
(= (matrix 3 2) (matrix 2 2))
(= (matrix 3 3) (matrix 2 3))
(= (matrix 3 4) (matrix 2 4))
(= (matrix 3 5) (+ (matrix 2 4) (matrix 2 6)))
(= (matrix 3 6) (matrix 2 6))
(= (matrix 3 7) (matrix 2 7))
(= (matrix 3 8) (matrix 2 8))
)
(and
(= (matrix 3 1) (matrix 2 1))
(= (matrix 3 2) (matrix 2 2))
(= (matrix 3 3) (matrix 2 3))
(= (matrix 3 4) (matrix 2 4))
(= (matrix 3 5) (matrix 2 5))
(= (matrix 3 6) (+ (matrix 2 5) (matrix 2 7)))
(= (matrix 3 7) (matrix 2 7))
(= (matrix 3 8) (matrix 2 8))
)
(and
(= (matrix 3 1) (matrix 2 1))
(= (matrix 3 2) (matrix 2 2))
(= (matrix 3 3) (matrix 2 3))
(= (matrix 3 4) (matrix 2 4))
(= (matrix 3 5) (matrix 2 5))
(= (matrix 3 6) (matrix 2 6))
(= (matrix 3 7) (+ (matrix 2 6) (matrix 2 8)))
(= (matrix 3 8) (matrix 2 8))
)
))
(assert (or
(and
(= (matrix 4 1) (matrix 3 1))
(= (matrix 4 2) (+ (matrix 3 1) (matrix 3 3)))
(= (matrix 4 3) (matrix 3 3))
(= (matrix 4 4) (matrix 3 4))
(= (matrix 4 5) (matrix 3 5))
(= (matrix 4 6) (matrix 3 6))
(= (matrix 4 7) (matrix 3 7))
(= (matrix 4 8) (matrix 3 8))
)
(and
(= (matrix 4 1) (matrix 3 1))
(= (matrix 4 2) (matrix 3 2))
(= (matrix 4 3) (+ (matrix 3 2) (matrix 3 4)))
(= (matrix 4 4) (matrix 3 4))
(= (matrix 4 5) (matrix 3 5))
(= (matrix 4 6) (matrix 3 6))
(= (matrix 4 7) (matrix 3 7))
(= (matrix 4 8) (matrix 3 8))
)
(and
(= (matrix 4 1) (matrix 3 1))
(= (matrix 4 2) (matrix 3 2))
(= (matrix 4 3) (matrix 3 3))
(= (matrix 4 4) (+ (matrix 3 3) (matrix 3 5)))
(= (matrix 4 5) (matrix 3 5))
(= (matrix 4 6) (matrix 3 6))
(= (matrix 4 7) (matrix 3 7))
(= (matrix 4 8) (matrix 3 8))
)
(and
(= (matrix 4 1) (matrix 3 1))
(= (matrix 4 2) (matrix 3 2))
(= (matrix 4 3) (matrix 3 3))
(= (matrix 4 4) (matrix 3 4))
(= (matrix 4 5) (+ (matrix 3 4) (matrix 3 6)))
(= (matrix 4 6) (matrix 3 6))
(= (matrix 4 7) (matrix 3 7))
(= (matrix 4 8) (matrix 3 8))
)
(and
(= (matrix 4 1) (matrix 3 1))
(= (matrix 4 2) (matrix 3 2))
(= (matrix 4 3) (matrix 3 3))
(= (matrix 4 4) (matrix 3 4))
(= (matrix 4 5) (matrix 3 5))
(= (matrix 4 6) (+ (matrix 3 5) (matrix 3 7)))
(= (matrix 4 7) (matrix 3 7))
(= (matrix 4 8) (matrix 3 8))
)
(and
(= (matrix 4 1) (matrix 3 1))
(= (matrix 4 2) (matrix 3 2))
(= (matrix 4 3) (matrix 3 3))
(= (matrix 4 4) (matrix 3 4))
(= (matrix 4 5) (matrix 3 5))
(= (matrix 4 6) (matrix 3 6))
(= (matrix 4 7) (+ (matrix 3 6) (matrix 3 8)))
(= (matrix 4 8) (matrix 3 8))
)
))
(assert (or
(and
(= (matrix 5 1) (matrix 4 1))
(= (matrix 5 2) (+ (matrix 4 1) (matrix 4 3)))
(= (matrix 5 3) (matrix 4 3))
(= (matrix 5 4) (matrix 4 4))
(= (matrix 5 5) (matrix 4 5))
(= (matrix 5 6) (matrix 4 6))
(= (matrix 5 7) (matrix 4 7))
(= (matrix 5 8) (matrix 4 8))
)
(and
(= (matrix 5 1) (matrix 4 1))
(= (matrix 5 2) (matrix 4 2))
(= (matrix 5 3) (+ (matrix 4 2) (matrix 4 4)))
(= (matrix 5 4) (matrix 4 4))
(= (matrix 5 5) (matrix 4 5))
(= (matrix 5 6) (matrix 4 6))
(= (matrix 5 7) (matrix 4 7))
(= (matrix 5 8) (matrix 4 8))
)
(and
(= (matrix 5 1) (matrix 4 1))
(= (matrix 5 2) (matrix 4 2))
(= (matrix 5 3) (matrix 4 3))
(= (matrix 5 4) (+ (matrix 4 3) (matrix 4 5)))
(= (matrix 5 5) (matrix 4 5))
(= (matrix 5 6) (matrix 4 6))
(= (matrix 5 7) (matrix 4 7))
(= (matrix 5 8) (matrix 4 8))
)
(and
(= (matrix 5 1) (matrix 4 1))
(= (matrix 5 2) (matrix 4 2))
(= (matrix 5 3) (matrix 4 3))
(= (matrix 5 4) (matrix 4 4))
(= (matrix 5 5) (+ (matrix 4 4) (matrix 4 6)))
(= (matrix 5 6) (matrix 4 6))
(= (matrix 5 7) (matrix 4 7))
(= (matrix 5 8) (matrix 4 8))
)
(and
(= (matrix 5 1) (matrix 4 1))
(= (matrix 5 2) (matrix 4 2))
(= (matrix 5 3) (matrix 4 3))
(= (matrix 5 4) (matrix 4 4))
(= (matrix 5 5) (matrix 4 5))
(= (matrix 5 6) (+ (matrix 4 5) (matrix 4 7)))
(= (matrix 5 7) (matrix 4 7))
(= (matrix 5 8) (matrix 4 8))
)
(and
(= (matrix 5 1) (matrix 4 1))
(= (matrix 5 2) (matrix 4 2))
(= (matrix 5 3) (matrix 4 3))
(= (matrix 5 4) (matrix 4 4))
(= (matrix 5 5) (matrix 4 5))
(= (matrix 5 6) (matrix 4 6))
(= (matrix 5 7) (+ (matrix 4 6) (matrix 4 8)))
(= (matrix 5 8) (matrix 4 8))
)
))
(assert (or
(and
(= (matrix 6 1) (matrix 5 1))
(= (matrix 6 2) (+ (matrix 5 1) (matrix 5 3)))
(= (matrix 6 3) (matrix 5 3))
(= (matrix 6 4) (matrix 5 4))
(= (matrix 6 5) (matrix 5 5))
(= (matrix 6 6) (matrix 5 6))
(= (matrix 6 7) (matrix 5 7))
(= (matrix 6 8) (matrix 5 8))
)
(and
(= (matrix 6 1) (matrix 5 1))
(= (matrix 6 2) (matrix 5 2))
(= (matrix 6 3) (+ (matrix 5 2) (matrix 5 4)))
(= (matrix 6 4) (matrix 5 4))
(= (matrix 6 5) (matrix 5 5))
(= (matrix 6 6) (matrix 5 6))
(= (matrix 6 7) (matrix 5 7))
(= (matrix 6 8) (matrix 5 8))
)
(and
(= (matrix 6 1) (matrix 5 1))
(= (matrix 6 2) (matrix 5 2))
(= (matrix 6 3) (matrix 5 3))
(= (matrix 6 4) (+ (matrix 5 3) (matrix 5 5)))
(= (matrix 6 5) (matrix 5 5))
(= (matrix 6 6) (matrix 5 6))
(= (matrix 6 7) (matrix 5 7))
(= (matrix 6 8) (matrix 5 8))
)
(and
(= (matrix 6 1) (matrix 5 1))
(= (matrix 6 2) (matrix 5 2))
(= (matrix 6 3) (matrix 5 3))
(= (matrix 6 4) (matrix 5 4))
(= (matrix 6 5) (+ (matrix 5 4) (matrix 5 6)))
(= (matrix 6 6) (matrix 5 6))
(= (matrix 6 7) (matrix 5 7))
(= (matrix 6 8) (matrix 5 8))
)
(and
(= (matrix 6 1) (matrix 5 1))
(= (matrix 6 2) (matrix 5 2))
(= (matrix 6 3) (matrix 5 3))
(= (matrix 6 4) (matrix 5 4))
(= (matrix 6 5) (matrix 5 5))
(= (matrix 6 6) (+ (matrix 5 5) (matrix 5 7)))
(= (matrix 6 7) (matrix 5 7))
(= (matrix 6 8) (matrix 5 8))
)
(and
(= (matrix 6 1) (matrix 5 1))
(= (matrix 6 2) (matrix 5 2))
(= (matrix 6 3) (matrix 5 3))
(= (matrix 6 4) (matrix 5 4))
(= (matrix 6 5) (matrix 5 5))
(= (matrix 6 6) (matrix 5 6))
(= (matrix 6 7) (+ (matrix 5 6) (matrix 5 8)))
(= (matrix 6 8) (matrix 5 8))
)
))
(assert (or
(and
(= (matrix 7 1) (matrix 6 1))
(= (matrix 7 2) (+ (matrix 6 1) (matrix 6 3)))
(= (matrix 7 3) (matrix 6 3))
(= (matrix 7 4) (matrix 6 4))
(= (matrix 7 5) (matrix 6 5))
(= (matrix 7 6) (matrix 6 6))
(= (matrix 7 7) (matrix 6 7))
(= (matrix 7 8) (matrix 6 8))
)
(and
(= (matrix 7 1) (matrix 6 1))
(= (matrix 7 2) (matrix 6 2))
(= (matrix 7 3) (+ (matrix 6 2) (matrix 6 4)))
(= (matrix 7 4) (matrix 6 4))
(= (matrix 7 5) (matrix 6 5))
(= (matrix 7 6) (matrix 6 6))
(= (matrix 7 7) (matrix 6 7))
(= (matrix 7 8) (matrix 6 8))
)
(and
(= (matrix 7 1) (matrix 6 1))
(= (matrix 7 2) (matrix 6 2))
(= (matrix 7 3) (matrix 6 3))
(= (matrix 7 4) (+ (matrix 6 3) (matrix 6 5)))
(= (matrix 7 5) (matrix 6 5))
(= (matrix 7 6) (matrix 6 6))
(= (matrix 7 7) (matrix 6 7))
(= (matrix 7 8) (matrix 6 8))
)
(and
(= (matrix 7 1) (matrix 6 1))
(= (matrix 7 2) (matrix 6 2))
(= (matrix 7 3) (matrix 6 3))
(= (matrix 7 4) (matrix 6 4))
(= (matrix 7 5) (+ (matrix 6 4) (matrix 6 6)))
(= (matrix 7 6) (matrix 6 6))
(= (matrix 7 7) (matrix 6 7))
(= (matrix 7 8) (matrix 6 8))
)
(and
(= (matrix 7 1) (matrix 6 1))
(= (matrix 7 2) (matrix 6 2))
(= (matrix 7 3) (matrix 6 3))
(= (matrix 7 4) (matrix 6 4))
(= (matrix 7 5) (matrix 6 5))
(= (matrix 7 6) (+ (matrix 6 5) (matrix 6 7)))
(= (matrix 7 7) (matrix 6 7))
(= (matrix 7 8) (matrix 6 8))
)
(and
(= (matrix 7 1) (matrix 6 1))
(= (matrix 7 2) (matrix 6 2))
(= (matrix 7 3) (matrix 6 3))
(= (matrix 7 4) (matrix 6 4))
(= (matrix 7 5) (matrix 6 5))
(= (matrix 7 6) (matrix 6 6))
(= (matrix 7 7) (+ (matrix 6 6) (matrix 6 8)))
(= (matrix 7 8) (matrix 6 8))
)
))
(assert (or
(and
(= (matrix 8 1) (matrix 7 1))
(= (matrix 8 2) (+ (matrix 7 1) (matrix 7 3)))
(= (matrix 8 3) (matrix 7 3))
(= (matrix 8 4) (matrix 7 4))
(= (matrix 8 5) (matrix 7 5))
(= (matrix 8 6) (matrix 7 6))
(= (matrix 8 7) (matrix 7 7))
(= (matrix 8 8) (matrix 7 8))
)
(and
(= (matrix 8 1) (matrix 7 1))
(= (matrix 8 2) (matrix 7 2))
(= (matrix 8 3) (+ (matrix 7 2) (matrix 7 4)))
(= (matrix 8 4) (matrix 7 4))
(= (matrix 8 5) (matrix 7 5))
(= (matrix 8 6) (matrix 7 6))
(= (matrix 8 7) (matrix 7 7))
(= (matrix 8 8) (matrix 7 8))
)
(and
(= (matrix 8 1) (matrix 7 1))
(= (matrix 8 2) (matrix 7 2))
(= (matrix 8 3) (matrix 7 3))
(= (matrix 8 4) (+ (matrix 7 3) (matrix 7 5)))
(= (matrix 8 5) (matrix 7 5))
(= (matrix 8 6) (matrix 7 6))
(= (matrix 8 7) (matrix 7 7))
(= (matrix 8 8) (matrix 7 8))
)
(and
(= (matrix 8 1) (matrix 7 1))
(= (matrix 8 2) (matrix 7 2))
(= (matrix 8 3) (matrix 7 3))
(= (matrix 8 4) (matrix 7 4))
(= (matrix 8 5) (+ (matrix 7 4) (matrix 7 6)))
(= (matrix 8 6) (matrix 7 6))
(= (matrix 8 7) (matrix 7 7))
(= (matrix 8 8) (matrix 7 8))
)
(and
(= (matrix 8 1) (matrix 7 1))
(= (matrix 8 2) (matrix 7 2))
(= (matrix 8 3) (matrix 7 3))
(= (matrix 8 4) (matrix 7 4))
(= (matrix 8 5) (matrix 7 5))
(= (matrix 8 6) (+ (matrix 7 5) (matrix 7 7)))
(= (matrix 8 7) (matrix 7 7))
(= (matrix 8 8) (matrix 7 8))
)
(and
(= (matrix 8 1) (matrix 7 1))
(= (matrix 8 2) (matrix 7 2))
(= (matrix 8 3) (matrix 7 3))
(= (matrix 8 4) (matrix 7 4))
(= (matrix 8 5) (matrix 7 5))
(= (matrix 8 6) (matrix 7 6))
(= (matrix 8 7) (+ (matrix 7 6) (matrix 7 8)))
(= (matrix 8 8) (matrix 7 8))
)
))
(assert (or
(and
(= (matrix 9 1) (matrix 8 1))
(= (matrix 9 2) (+ (matrix 8 1) (matrix 8 3)))
(= (matrix 9 3) (matrix 8 3))
(= (matrix 9 4) (matrix 8 4))
(= (matrix 9 5) (matrix 8 5))
(= (matrix 9 6) (matrix 8 6))
(= (matrix 9 7) (matrix 8 7))
(= (matrix 9 8) (matrix 8 8))
)
(and
(= (matrix 9 1) (matrix 8 1))
(= (matrix 9 2) (matrix 8 2))
(= (matrix 9 3) (+ (matrix 8 2) (matrix 8 4)))
(= (matrix 9 4) (matrix 8 4))
(= (matrix 9 5) (matrix 8 5))
(= (matrix 9 6) (matrix 8 6))
(= (matrix 9 7) (matrix 8 7))
(= (matrix 9 8) (matrix 8 8))
)
(and
(= (matrix 9 1) (matrix 8 1))
(= (matrix 9 2) (matrix 8 2))
(= (matrix 9 3) (matrix 8 3))
(= (matrix 9 4) (+ (matrix 8 3) (matrix 8 5)))
(= (matrix 9 5) (matrix 8 5))
(= (matrix 9 6) (matrix 8 6))
(= (matrix 9 7) (matrix 8 7))
(= (matrix 9 8) (matrix 8 8))
)
(and
(= (matrix 9 1) (matrix 8 1))
(= (matrix 9 2) (matrix 8 2))
(= (matrix 9 3) (matrix 8 3))
(= (matrix 9 4) (matrix 8 4))
(= (matrix 9 5) (+ (matrix 8 4) (matrix 8 6)))
(= (matrix 9 6) (matrix 8 6))
(= (matrix 9 7) (matrix 8 7))
(= (matrix 9 8) (matrix 8 8))
)
(and
(= (matrix 9 1) (matrix 8 1))
(= (matrix 9 2) (matrix 8 2))
(= (matrix 9 3) (matrix 8 3))
(= (matrix 9 4) (matrix 8 4))
(= (matrix 9 5) (matrix 8 5))
(= (matrix 9 6) (+ (matrix 8 5) (matrix 8 7)))
(= (matrix 9 7) (matrix 8 7))
(= (matrix 9 8) (matrix 8 8))
)
(and
(= (matrix 9 1) (matrix 8 1))
(= (matrix 9 2) (matrix 8 2))
(= (matrix 9 3) (matrix 8 3))
(= (matrix 9 4) (matrix 8 4))
(= (matrix 9 5) (matrix 8 5))
(= (matrix 9 6) (matrix 8 6))
(= (matrix 9 7) (+ (matrix 8 6) (matrix 8 8)))
(= (matrix 9 8) (matrix 8 8))
)
))
(assert (or
(and
(= (matrix 10 1) (matrix 9 1))
(= (matrix 10 2) (+ (matrix 9 1) (matrix 9 3)))
(= (matrix 10 3) (matrix 9 3))
(= (matrix 10 4) (matrix 9 4))
(= (matrix 10 5) (matrix 9 5))
(= (matrix 10 6) (matrix 9 6))
(= (matrix 10 7) (matrix 9 7))
(= (matrix 10 8) (matrix 9 8))
)
(and
(= (matrix 10 1) (matrix 9 1))
(= (matrix 10 2) (matrix 9 2))
(= (matrix 10 3) (+ (matrix 9 2) (matrix 9 4)))
(= (matrix 10 4) (matrix 9 4))
(= (matrix 10 5) (matrix 9 5))
(= (matrix 10 6) (matrix 9 6))
(= (matrix 10 7) (matrix 9 7))
(= (matrix 10 8) (matrix 9 8))
)
(and
(= (matrix 10 1) (matrix 9 1))
(= (matrix 10 2) (matrix 9 2))
(= (matrix 10 3) (matrix 9 3))
(= (matrix 10 4) (+ (matrix 9 3) (matrix 9 5)))
(= (matrix 10 5) (matrix 9 5))
(= (matrix 10 6) (matrix 9 6))
(= (matrix 10 7) (matrix 9 7))
(= (matrix 10 8) (matrix 9 8))
)
(and
(= (matrix 10 1) (matrix 9 1))
(= (matrix 10 2) (matrix 9 2))
(= (matrix 10 3) (matrix 9 3))
(= (matrix 10 4) (matrix 9 4))
(= (matrix 10 5) (+ (matrix 9 4) (matrix 9 6)))
(= (matrix 10 6) (matrix 9 6))
(= (matrix 10 7) (matrix 9 7))
(= (matrix 10 8) (matrix 9 8))
)
(and
(= (matrix 10 1) (matrix 9 1))
(= (matrix 10 2) (matrix 9 2))
(= (matrix 10 3) (matrix 9 3))
(= (matrix 10 4) (matrix 9 4))
(= (matrix 10 5) (matrix 9 5))
(= (matrix 10 6) (+ (matrix 9 5) (matrix 9 7)))
(= (matrix 10 7) (matrix 9 7))
(= (matrix 10 8) (matrix 9 8))
)
(and
(= (matrix 10 1) (matrix 9 1))
(= (matrix 10 2) (matrix 9 2))
(= (matrix 10 3) (matrix 9 3))
(= (matrix 10 4) (matrix 9 4))
(= (matrix 10 5) (matrix 9 5))
(= (matrix 10 6) (matrix 9 6))
(= (matrix 10 7) (+ (matrix 9 6) (matrix 9 8)))
(= (matrix 10 8) (matrix 9 8))
)
))

(assert (or
(= (matrix 10 1) 157)
(= (matrix 10 2) 157)
(= (matrix 10 3) 157)
(= (matrix 10 4) 157)
(= (matrix 10 5) 157)
(= (matrix 10 6) 157)
(= (matrix 10 7) 157)
(= (matrix 10 8) 157)
))

(check)
